c WMC file for PBN ISCAS/c1355_distill_ISCAS/c1355_miter written by probABC
p cnf 878 2352
95 -1 2 0
-95 1 0
-95 -2 0
96 1 -2 0
-96 -1 0
-96 2 0
97 95 96 0
-97 -95 0
-97 -96 0
98 3 -4 0
-98 -3 0
-98 4 0
99 -3 4 0
-99 3 0
-99 -4 0
100 98 99 0
-100 -98 0
-100 -99 0
101 97 -100 0
-101 -97 0
-101 100 0
102 -97 100 0
-102 97 0
-102 -100 0
103 101 102 0
-103 -101 0
-103 -102 0
104 -25 29 0
-104 25 0
-104 -29 0
105 25 -29 0
-105 -25 0
-105 29 0
106 104 105 0
-106 -104 0
-106 -105 0
107 7 8 0
-107 -7 0
-107 -8 0
108 -7 -8 0
-108 7 0
-108 8 0
109 107 108 0
-109 -107 0
-109 -108 0
110 -5 6 0
-110 5 0
-110 -6 0
111 5 -6 0
-111 -5 0
-111 6 0
112 110 111 0
-112 -110 0
-112 -111 0
113 -109 -112 0
-113 109 0
-113 112 0
114 109 112 0
-114 -109 0
-114 -112 0
115 113 114 0
-115 -113 0
-115 -114 0
116 -37 -41 0
-116 37 0
-116 41 0
117 -17 21 0
-117 17 0
-117 -21 0
118 17 -21 0
-118 -17 0
-118 21 0
119 117 118 0
-119 -117 0
-119 -118 0
120 -116 119 0
-120 116 0
-120 -119 0
121 116 -119 0
-121 -116 0
-121 119 0
122 120 121 0
-122 -120 0
-122 -121 0
123 -115 -122 0
-123 115 0
-123 122 0
124 115 122 0
-124 -115 0
-124 -122 0
125 123 124 0
-125 -123 0
-125 -124 0
126 -106 125 0
-126 106 0
-126 -125 0
127 106 -125 0
-127 -106 0
-127 125 0
128 126 127 0
-128 -126 0
-128 -127 0
129 -103 -128 0
-129 103 0
-129 128 0
130 103 128 0
-130 -103 0
-130 -128 0
131 129 130 0
-131 -129 0
-131 -130 0
132 -34 -41 0
-132 34 0
-132 41 0
133 10 14 0
-133 -10 0
-133 -14 0
134 -10 -14 0
-134 10 0
-134 14 0
135 133 134 0
-135 -133 0
-135 -134 0
136 -132 135 0
-136 132 0
-136 -135 0
137 132 -135 0
-137 -132 0
-137 135 0
138 136 137 0
-138 -136 0
-138 -137 0
139 2 6 0
-139 -2 0
-139 -6 0
140 -2 -6 0
-140 2 0
-140 6 0
141 139 140 0
-141 -139 0
-141 -140 0
142 31 32 0
-142 -31 0
-142 -32 0
143 -31 -32 0
-143 31 0
-143 32 0
144 142 143 0
-144 -142 0
-144 -143 0
145 -29 30 0
-145 29 0
-145 -30 0
146 29 -30 0
-146 -29 0
-146 30 0
147 145 146 0
-147 -145 0
-147 -146 0
148 -144 -147 0
-148 144 0
-148 147 0
149 144 147 0
-149 -144 0
-149 -147 0
150 148 149 0
-150 -148 0
-150 -149 0
151 -141 150 0
-151 141 0
-151 -150 0
152 141 -150 0
-152 -141 0
-152 150 0
153 151 152 0
-153 -151 0
-153 -152 0
154 -138 -153 0
-154 138 0
-154 153 0
155 138 153 0
-155 -138 0
-155 -153 0
156 154 155 0
-156 -154 0
-156 -155 0
157 -25 26 0
-157 25 0
-157 -26 0
158 25 -26 0
-158 -25 0
-158 26 0
159 157 158 0
-159 -157 0
-159 -158 0
160 27 -28 0
-160 -27 0
-160 28 0
161 -27 28 0
-161 27 0
-161 -28 0
162 160 161 0
-162 -160 0
-162 -161 0
163 159 -162 0
-163 -159 0
-163 162 0
164 -159 162 0
-164 159 0
-164 -162 0
165 163 164 0
-165 -163 0
-165 -164 0
166 -156 -165 0
-166 156 0
-166 165 0
167 156 165 0
-167 -156 0
-167 -165 0
168 166 167 0
-168 -166 0
-168 -167 0
169 -33 -41 0
-169 33 0
-169 41 0
170 -1 5 0
-170 1 0
-170 -5 0
171 1 -5 0
-171 -1 0
-171 5 0
172 170 171 0
-172 -170 0
-172 -171 0
173 -9 13 0
-173 9 0
-173 -13 0
174 9 -13 0
-174 -9 0
-174 13 0
175 173 174 0
-175 -173 0
-175 -174 0
176 -172 -175 0
-176 172 0
-176 175 0
177 172 175 0
-177 -172 0
-177 -175 0
178 176 177 0
-178 -176 0
-178 -177 0
179 -169 178 0
-179 169 0
-179 -178 0
180 169 -178 0
-180 -169 0
-180 178 0
181 179 180 0
-181 -179 0
-181 -180 0
182 -21 22 0
-182 21 0
-182 -22 0
183 21 -22 0
-183 -21 0
-183 22 0
184 182 183 0
-184 -182 0
-184 -183 0
185 -23 24 0
-185 23 0
-185 -24 0
186 23 -24 0
-186 -23 0
-186 24 0
187 185 186 0
-187 -185 0
-187 -186 0
188 184 187 0
-188 -184 0
-188 -187 0
189 -184 -187 0
-189 184 0
-189 187 0
190 188 189 0
-190 -188 0
-190 -189 0
191 -19 20 0
-191 19 0
-191 -20 0
192 19 -20 0
-192 -19 0
-192 20 0
193 191 192 0
-193 -191 0
-193 -192 0
194 17 -18 0
-194 -17 0
-194 18 0
195 -17 18 0
-195 17 0
-195 -18 0
196 194 195 0
-196 -194 0
-196 -195 0
197 -193 196 0
-197 193 0
-197 -196 0
198 193 -196 0
-198 -193 0
-198 196 0
199 197 198 0
-199 -197 0
-199 -198 0
200 -190 199 0
-200 190 0
-200 -199 0
201 190 -199 0
-201 -190 0
-201 199 0
202 200 201 0
-202 -200 0
-202 -201 0
203 -181 -202 0
-203 181 0
-203 202 0
204 181 202 0
-204 -181 0
-204 -202 0
205 203 204 0
-205 -203 0
-205 -204 0
206 168 205 0
-206 -168 0
-206 -205 0
207 150 -190 0
-207 -150 0
-207 190 0
208 -150 190 0
-208 150 0
-208 -190 0
209 207 208 0
-209 -207 0
-209 -208 0
210 -36 -41 0
-210 36 0
-210 41 0
211 12 16 0
-211 -12 0
-211 -16 0
212 -12 -16 0
-212 12 0
-212 16 0
213 211 212 0
-213 -211 0
-213 -212 0
214 -4 8 0
-214 4 0
-214 -8 0
215 4 -8 0
-215 -4 0
-215 8 0
216 214 215 0
-216 -214 0
-216 -215 0
217 -213 -216 0
-217 213 0
-217 216 0
218 213 216 0
-218 -213 0
-218 -216 0
219 217 218 0
-219 -217 0
-219 -218 0
220 -210 219 0
-220 210 0
-220 -219 0
221 210 -219 0
-221 -210 0
-221 219 0
222 220 221 0
-222 -220 0
-222 -221 0
223 -209 -222 0
-223 209 0
-223 222 0
224 209 222 0
-224 -209 0
-224 -222 0
225 223 224 0
-225 -223 0
-225 -224 0
226 11 15 0
-226 -11 0
-226 -15 0
227 -11 -15 0
-227 11 0
-227 15 0
228 226 227 0
-228 -226 0
-228 -227 0
229 -3 7 0
-229 3 0
-229 -7 0
230 3 -7 0
-230 -3 0
-230 7 0
231 229 230 0
-231 -229 0
-231 -230 0
232 -228 -231 0
-232 228 0
-232 231 0
233 228 231 0
-233 -228 0
-233 -231 0
234 232 233 0
-234 -232 0
-234 -233 0
235 -35 -41 0
-235 35 0
-235 41 0
236 199 235 0
-236 -199 0
-236 -235 0
237 -199 -235 0
-237 199 0
-237 235 0
238 236 237 0
-238 -236 0
-238 -237 0
239 165 -238 0
-239 -165 0
-239 238 0
240 -165 238 0
-240 165 0
-240 -238 0
241 239 240 0
-241 -239 0
-241 -240 0
242 -234 -241 0
-242 234 0
-242 241 0
243 234 241 0
-243 -234 0
-243 -241 0
244 242 243 0
-244 -242 0
-244 -243 0
245 225 -244 0
-245 -225 0
-245 244 0
246 -15 16 0
-246 15 0
-246 -16 0
247 15 -16 0
-247 -15 0
-247 16 0
248 246 247 0
-248 -246 0
-248 -247 0
249 -13 14 0
-249 13 0
-249 -14 0
250 13 -14 0
-250 -13 0
-250 14 0
251 249 250 0
-251 -249 0
-251 -250 0
252 -248 -251 0
-252 248 0
-252 251 0
253 248 251 0
-253 -248 0
-253 -251 0
254 252 253 0
-254 -252 0
-254 -253 0
255 -20 24 0
-255 20 0
-255 -24 0
256 20 -24 0
-256 -20 0
-256 24 0
257 255 256 0
-257 -255 0
-257 -256 0
258 -28 32 0
-258 28 0
-258 -32 0
259 28 -32 0
-259 -28 0
-259 32 0
260 258 259 0
-260 -258 0
-260 -259 0
261 -257 -260 0
-261 257 0
-261 260 0
262 257 260 0
-262 -257 0
-262 -260 0
263 261 262 0
-263 -261 0
-263 -262 0
264 -40 -41 0
-264 40 0
-264 41 0
265 -115 -264 0
-265 115 0
-265 264 0
266 115 264 0
-266 -115 0
-266 -264 0
267 265 266 0
-267 -265 0
-267 -266 0
268 -263 267 0
-268 263 0
-268 -267 0
269 263 -267 0
-269 -263 0
-269 267 0
270 268 269 0
-270 -268 0
-270 -269 0
271 -254 -270 0
-271 254 0
-271 270 0
272 254 270 0
-272 -254 0
-272 -270 0
273 271 272 0
-273 -271 0
-273 -272 0
274 -19 23 0
-274 19 0
-274 -23 0
275 19 -23 0
-275 -19 0
-275 23 0
276 274 275 0
-276 -274 0
-276 -275 0
277 11 12 0
-277 -11 0
-277 -12 0
278 -11 -12 0
-278 11 0
-278 12 0
279 277 278 0
-279 -277 0
-279 -278 0
280 -9 10 0
-280 9 0
-280 -10 0
281 9 -10 0
-281 -9 0
-281 10 0
282 280 281 0
-282 -280 0
-282 -281 0
283 -279 -282 0
-283 279 0
-283 282 0
284 279 282 0
-284 -279 0
-284 -282 0
285 283 284 0
-285 -283 0
-285 -284 0
286 -39 -41 0
-286 39 0
-286 41 0
287 27 -31 0
-287 -27 0
-287 31 0
288 -27 31 0
-288 27 0
-288 -31 0
289 287 288 0
-289 -287 0
-289 -288 0
290 -286 289 0
-290 286 0
-290 -289 0
291 286 -289 0
-291 -286 0
-291 289 0
292 290 291 0
-292 -290 0
-292 -291 0
293 -285 -292 0
-293 285 0
-293 292 0
294 285 292 0
-294 -285 0
-294 -292 0
295 293 294 0
-295 -293 0
-295 -294 0
296 -276 295 0
-296 276 0
-296 -295 0
297 276 -295 0
-297 -276 0
-297 295 0
298 296 297 0
-298 -296 0
-298 -297 0
299 -103 -298 0
-299 103 0
-299 298 0
300 103 298 0
-300 -103 0
-300 -298 0
301 299 300 0
-301 -299 0
-301 -300 0
302 -273 301 0
-302 273 0
-302 -301 0
303 273 -301 0
-303 -273 0
-303 301 0
304 302 303 0
-304 -302 0
-304 -303 0
305 -38 -41 0
-305 38 0
-305 41 0
306 26 30 0
-306 -26 0
-306 -30 0
307 -26 -30 0
-307 26 0
-307 30 0
308 306 307 0
-308 -306 0
-308 -307 0
309 -18 22 0
-309 18 0
-309 -22 0
310 18 -22 0
-310 -18 0
-310 22 0
311 309 310 0
-311 -309 0
-311 -310 0
312 -308 -311 0
-312 308 0
-312 311 0
313 308 311 0
-313 -308 0
-313 -311 0
314 312 313 0
-314 -312 0
-314 -313 0
315 -305 314 0
-315 305 0
-315 -314 0
316 305 -314 0
-316 -305 0
-316 314 0
317 315 316 0
-317 -315 0
-317 -316 0
318 254 -285 0
-318 -254 0
-318 285 0
319 -254 285 0
-319 254 0
-319 -285 0
320 318 319 0
-320 -318 0
-320 -319 0
321 -317 -320 0
-321 317 0
-321 320 0
322 317 320 0
-322 -317 0
-322 -320 0
323 321 322 0
-323 -321 0
-323 -322 0
324 131 323 0
-324 -131 0
-324 -323 0
325 304 -324 0
-325 -304 0
-325 324 0
326 131 -323 0
-326 -131 0
-326 323 0
327 -131 323 0
-327 131 0
-327 -323 0
328 326 327 0
-328 -326 0
-328 -327 0
329 273 301 0
-329 -273 0
-329 -301 0
330 328 -329 0
-330 -328 0
-330 329 0
331 325 330 0
-331 -325 0
-331 -330 0
332 -245 331 0
-332 245 0
-332 -331 0
333 -206 -332 0
-333 206 0
-333 332 0
334 -131 -333 0
-334 131 0
-334 333 0
335 51 106 0
-335 -51 0
-335 -106 0
336 -51 -106 0
-336 51 0
-336 106 0
337 335 336 0
-337 -335 0
-337 -336 0
338 52 337 0
-338 -52 0
-338 -337 0
339 -116 338 0
-339 116 0
-339 -338 0
340 116 -338 0
-340 -116 0
-340 338 0
341 339 340 0
-341 -339 0
-341 -340 0
342 97 -99 0
-342 -97 0
-342 99 0
343 -97 99 0
-343 97 0
-343 -99 0
344 342 343 0
-344 -342 0
-344 -343 0
345 53 98 0
-345 -53 0
-345 -98 0
346 344 -345 0
-346 -344 0
-346 345 0
347 -344 345 0
-347 344 0
-347 -345 0
348 346 347 0
-348 -346 0
-348 -347 0
349 54 348 0
-349 -54 0
-349 -348 0
350 -52 -337 0
-350 52 0
-350 337 0
351 -50 118 0
-351 50 0
-351 -118 0
352 50 -118 0
-352 -50 0
-352 118 0
353 117 351 0
-353 -117 0
-353 -351 0
354 352 -353 0
-354 -352 0
-354 353 0
355 350 354 0
-355 -350 0
-355 -354 0
356 -349 355 0
-356 349 0
-356 -355 0
357 349 -355 0
-357 -349 0
-357 355 0
358 356 357 0
-358 -356 0
-358 -357 0
359 -54 -348 0
-359 54 0
-359 348 0
360 115 359 0
-360 -115 0
-360 -359 0
361 -358 360 0
-361 358 0
-361 -360 0
362 358 -360 0
-362 -358 0
-362 360 0
363 361 362 0
-363 -361 0
-363 -362 0
364 -341 -363 0
-364 341 0
-364 363 0
365 341 363 0
-365 -341 0
-365 -363 0
366 364 365 0
-366 -364 0
-366 -365 0
367 -64 161 0
-367 64 0
-367 -161 0
368 64 -161 0
-368 -64 0
-368 161 0
369 160 367 0
-369 -160 0
-369 -367 0
370 368 -369 0
-370 -368 0
-370 369 0
371 63 159 0
-371 -63 0
-371 -159 0
372 -63 -159 0
-372 63 0
-372 159 0
373 371 372 0
-373 -371 0
-373 -372 0
374 -65 -373 0
-374 65 0
-374 373 0
375 65 373 0
-375 -65 0
-375 -373 0
376 374 375 0
-376 -374 0
-376 -375 0
377 370 376 0
-377 -370 0
-377 -376 0
378 -370 375 0
-378 370 0
-378 -375 0
379 377 378 0
-379 -377 0
-379 -378 0
380 -235 379 0
-380 235 0
-380 -379 0
381 235 -379 0
-381 -235 0
-381 379 0
382 380 381 0
-382 -380 0
-382 -381 0
383 44 193 0
-383 -44 0
-383 -193 0
384 -45 383 0
-384 45 0
-384 -383 0
385 45 -383 0
-385 -45 0
-385 383 0
386 384 385 0
-386 -384 0
-386 -385 0
387 43 196 0
-387 -43 0
-387 -196 0
388 -44 -193 0
-388 44 0
-388 193 0
389 -43 194 0
-389 43 0
-389 -194 0
390 387 389 0
-390 -387 0
-390 -389 0
391 388 -390 0
-391 -388 0
-391 390 0
392 -386 -391 0
-392 386 0
-392 391 0
393 386 391 0
-393 -386 0
-393 -391 0
394 392 393 0
-394 -392 0
-394 -393 0
395 66 394 0
-395 -66 0
-395 -394 0
396 -66 -394 0
-396 66 0
-396 394 0
397 395 396 0
-397 -395 0
-397 -396 0
398 234 -397 0
-398 -234 0
-398 397 0
399 -234 397 0
-399 234 0
-399 -397 0
400 398 399 0
-400 -398 0
-400 -399 0
401 -382 -400 0
-401 382 0
-401 400 0
402 382 400 0
-402 -382 0
-402 -400 0
403 401 402 0
-403 -401 0
-403 -402 0
404 184 -188 0
-404 -184 0
-404 188 0
405 -46 404 0
-405 46 0
-405 -404 0
406 46 190 0
-406 -46 0
-406 -190 0
407 405 406 0
-407 -405 0
-407 -406 0
408 -150 -210 0
-408 150 0
-408 210 0
409 150 210 0
-409 -150 0
-409 -210 0
410 408 409 0
-410 -408 0
-410 -409 0
411 -67 410 0
-411 67 0
-411 -410 0
412 67 -410 0
-412 -67 0
-412 410 0
413 411 412 0
-413 -411 0
-413 -412 0
414 -407 -413 0
-414 407 0
-414 413 0
415 407 413 0
-415 -407 0
-415 -413 0
416 414 415 0
-416 -414 0
-416 -415 0
417 -219 416 0
-417 219 0
-417 -416 0
418 219 -416 0
-418 -219 0
-418 416 0
419 -68 418 0
-419 68 0
-419 -418 0
420 68 -418 0
-420 -68 0
-420 418 0
421 417 419 0
-421 -417 0
-421 -419 0
422 420 -421 0
-422 -420 0
-422 421 0
423 403 422 0
-423 -403 0
-423 -422 0
424 47 -394 0
-424 -47 0
-424 394 0
425 -47 394 0
-425 47 0
-425 -394 0
426 407 425 0
-426 -407 0
-426 -425 0
427 -424 426 0
-427 424 0
-427 -426 0
428 424 -426 0
-428 -424 0
-428 426 0
429 427 428 0
-429 -427 0
-429 -428 0
430 169 429 0
-430 -169 0
-430 -429 0
431 48 430 0
-431 -48 0
-431 -430 0
432 42 176 0
-432 -42 0
-432 -176 0
433 -431 432 0
-433 431 0
-433 -432 0
434 431 -432 0
-434 -431 0
-434 432 0
435 433 434 0
-435 -433 0
-435 -434 0
436 -169 -429 0
-436 169 0
-436 429 0
437 -49 177 0
-437 49 0
-437 -177 0
438 49 -177 0
-438 -49 0
-438 177 0
439 437 438 0
-439 -437 0
-439 -438 0
440 -436 439 0
-440 436 0
-440 -439 0
441 436 -439 0
-441 -436 0
-441 439 0
442 440 441 0
-442 -440 0
-442 -441 0
443 -435 -442 0
-443 435 0
-443 442 0
444 435 442 0
-444 -435 0
-444 -442 0
445 443 444 0
-445 -443 0
-445 -444 0
446 -156 379 0
-446 156 0
-446 -379 0
447 156 -379 0
-447 -156 0
-447 379 0
448 446 447 0
-448 -446 0
-448 -447 0
449 445 448 0
-449 -445 0
-449 -448 0
450 -55 254 0
-450 55 0
-450 -254 0
451 55 -254 0
-451 -55 0
-451 254 0
452 450 451 0
-452 -450 0
-452 -451 0
453 62 261 0
-453 -62 0
-453 -261 0
454 267 453 0
-454 -267 0
-454 -453 0
455 -267 -453 0
-455 267 0
-455 453 0
456 454 455 0
-456 -454 0
-456 -455 0
457 262 -456 0
-457 -262 0
-457 456 0
458 -262 456 0
-458 262 0
-458 -456 0
459 457 458 0
-459 -457 0
-459 -458 0
460 -452 -459 0
-460 452 0
-460 459 0
461 452 459 0
-461 -452 0
-461 -459 0
462 460 461 0
-462 -460 0
-462 -461 0
463 285 -305 0
-463 -285 0
-463 305 0
464 -285 305 0
-464 285 0
-464 -305 0
465 463 464 0
-465 -463 0
-465 -464 0
466 -452 -465 0
-466 452 0
-466 465 0
467 452 465 0
-467 -452 0
-467 -465 0
468 466 467 0
-468 -466 0
-468 -467 0
469 314 468 0
-469 -314 0
-469 -468 0
470 57 -469 0
-470 -57 0
-470 469 0
471 -57 469 0
-471 57 0
-471 -469 0
472 470 471 0
-472 -470 0
-472 -471 0
473 -314 -468 0
-473 314 0
-473 468 0
474 56 473 0
-474 -56 0
-474 -473 0
475 -472 -474 0
-475 472 0
-475 474 0
476 472 474 0
-476 -472 0
-476 -474 0
477 475 476 0
-477 -475 0
-477 -476 0
478 -366 -477 0
-478 366 0
-478 477 0
479 -58 -276 0
-479 58 0
-479 276 0
480 58 276 0
-480 -58 0
-480 -276 0
481 479 480 0
-481 -479 0
-481 -480 0
482 61 286 0
-482 -61 0
-482 -286 0
483 -288 482 0
-483 288 0
-483 -482 0
484 288 -482 0
-484 -288 0
-484 482 0
485 483 484 0
-485 -483 0
-485 -484 0
486 59 287 0
-486 -59 0
-486 -287 0
487 485 -486 0
-487 -485 0
-487 486 0
488 -485 486 0
-488 485 0
-488 -486 0
489 487 488 0
-489 -487 0
-489 -488 0
490 60 348 0
-490 -60 0
-490 -348 0
491 -285 -490 0
-491 285 0
-491 490 0
492 -61 -286 0
-492 61 0
-492 286 0
493 -60 -348 0
-493 60 0
-493 348 0
494 285 490 0
-494 -285 0
-494 -490 0
495 493 -494 0
-495 -493 0
-495 494 0
496 491 492 0
-496 -491 0
-496 -492 0
497 495 -496 0
-497 -495 0
-497 496 0
498 -489 497 0
-498 489 0
-498 -497 0
499 489 -497 0
-499 -489 0
-499 497 0
500 498 499 0
-500 -498 0
-500 -499 0
501 -481 -500 0
-501 481 0
-501 500 0
502 481 500 0
-502 -481 0
-502 -500 0
503 501 502 0
-503 -501 0
-503 -502 0
504 -462 -478 0
-504 462 0
-504 478 0
505 503 -504 0
-505 -503 0
-505 504 0
506 -80 505 0
-506 80 0
-506 -505 0
507 80 -505 0
-507 -80 0
-507 505 0
508 462 503 0
-508 -462 0
-508 -503 0
509 -462 -503 0
-509 462 0
-509 503 0
510 508 509 0
-510 -508 0
-510 -509 0
511 366 477 0
-511 -366 0
-511 -477 0
512 -462 -511 0
-512 462 0
-512 511 0
513 -510 512 0
-513 510 0
-513 -512 0
514 366 -477 0
-514 -366 0
-514 477 0
515 79 514 0
-515 -79 0
-515 -514 0
516 -79 -514 0
-516 79 0
-516 514 0
517 515 516 0
-517 -515 0
-517 -516 0
518 510 517 0
-518 -510 0
-518 -517 0
519 513 518 0
-519 -513 0
-519 -518 0
520 81 519 0
-520 -81 0
-520 -519 0
521 -81 -519 0
-521 81 0
-521 519 0
522 520 521 0
-522 -520 0
-522 -521 0
523 506 507 0
-523 -506 0
-523 -507 0
524 522 -523 0
-524 -522 0
-524 523 0
525 -449 524 0
-525 449 0
-525 -524 0
526 -423 -525 0
-526 423 0
-526 525 0
527 -366 -526 0
-527 366 0
-527 526 0
528 -17 -82 0
-528 17 0
-528 82 0
529 -527 -528 0
-529 527 0
-529 528 0
530 82 527 0
-530 -82 0
-530 -527 0
531 529 530 0
-531 -529 0
-531 -530 0
532 334 -531 0
-532 -334 0
-532 531 0
533 -403 422 0
-533 403 0
-533 -422 0
534 -449 -533 0
-534 449 0
-534 533 0
535 -445 -448 0
-535 445 0
-535 448 0
536 -533 -535 0
-536 533 0
-536 535 0
537 -69 536 0
-537 69 0
-537 -536 0
538 69 -536 0
-538 -69 0
-538 536 0
539 -403 -422 0
-539 403 0
-539 422 0
540 423 539 0
-540 -423 0
-540 -539 0
541 448 540 0
-541 -448 0
-541 -540 0
542 -445 -541 0
-542 445 0
-542 541 0
543 70 542 0
-543 -70 0
-543 -542 0
544 -70 -542 0
-544 70 0
-544 542 0
545 543 544 0
-545 -543 0
-545 -544 0
546 534 537 0
-546 -534 0
-546 -537 0
547 538 545 0
-547 -538 0
-547 -545 0
548 -546 -547 0
-548 546 0
-548 547 0
549 -478 548 0
-549 478 0
-549 -548 0
550 -509 -549 0
-550 509 0
-550 549 0
551 445 -550 0
-551 -445 0
-551 550 0
552 -1 551 0
-552 1 0
-552 -551 0
553 1 -551 0
-553 -1 0
-553 551 0
554 552 553 0
-554 -552 0
-554 -553 0
555 -168 -205 0
-555 168 0
-555 205 0
556 206 555 0
-556 -206 0
-556 -555 0
557 225 244 0
-557 -225 0
-557 -244 0
558 556 -557 0
-558 -556 0
-558 557 0
559 -225 244 0
-559 225 0
-559 -244 0
560 245 559 0
-560 -245 0
-560 -559 0
561 168 -205 0
-561 -168 0
-561 205 0
562 560 -561 0
-562 -560 0
-562 561 0
563 558 562 0
-563 -558 0
-563 -562 0
564 -303 563 0
-564 303 0
-564 -563 0
565 -327 -564 0
-565 327 0
-565 564 0
566 205 -565 0
-566 -205 0
-566 565 0
567 -1 566 0
-567 1 0
-567 -566 0
568 1 -566 0
-568 -1 0
-568 566 0
569 567 568 0
-569 -567 0
-569 -568 0
570 554 -569 0
-570 -554 0
-570 569 0
571 524 -535 0
-571 -524 0
-571 535 0
572 -423 -571 0
-572 423 0
-572 571 0
573 -90 572 0
-573 90 0
-573 -572 0
574 90 -572 0
-574 -90 0
-574 572 0
575 573 574 0
-575 -573 0
-575 -574 0
576 462 575 0
-576 -462 0
-576 -575 0
577 -332 -555 0
-577 332 0
-577 555 0
578 -273 -577 0
-578 273 0
-578 577 0
579 576 -578 0
-579 -576 0
-579 578 0
580 -508 -549 0
-580 508 0
-580 549 0
581 -448 -580 0
-581 448 0
-581 580 0
582 -6 581 0
-582 6 0
-582 -581 0
583 6 -581 0
-583 -6 0
-583 581 0
584 582 583 0
-584 -582 0
-584 -583 0
585 -302 563 0
-585 302 0
-585 -563 0
586 -327 -585 0
-586 327 0
-586 585 0
587 -168 -586 0
-587 168 0
-587 586 0
588 -6 587 0
-588 6 0
-588 -587 0
589 6 -587 0
-589 -6 0
-589 587 0
590 588 589 0
-590 -588 0
-590 -589 0
591 -584 590 0
-591 584 0
-591 -590 0
592 -326 -585 0
-592 326 0
-592 585 0
593 -168 -592 0
-593 168 0
-593 592 0
594 -14 593 0
-594 14 0
-594 -593 0
595 14 -593 0
-595 -14 0
-595 593 0
596 594 595 0
-596 -594 0
-596 -595 0
597 -511 548 0
-597 511 0
-597 -548 0
598 -508 -597 0
-598 508 0
-598 597 0
599 -448 -598 0
-599 448 0
-599 598 0
600 14 77 0
-600 -14 0
-600 -77 0
601 -14 -77 0
-601 14 0
-601 77 0
602 600 601 0
-602 -600 0
-602 -601 0
603 -599 602 0
-603 599 0
-603 -602 0
604 599 -602 0
-604 -599 0
-604 602 0
605 603 604 0
-605 -603 0
-605 -604 0
606 -596 605 0
-606 596 0
-606 -605 0
607 403 -550 0
-607 -403 0
-607 550 0
608 -3 607 0
-608 3 0
-608 -607 0
609 3 -607 0
-609 -3 0
-609 607 0
610 608 609 0
-610 -608 0
-610 -609 0
611 -244 -565 0
-611 244 0
-611 565 0
612 -3 611 0
-612 3 0
-612 -611 0
613 3 -611 0
-613 -3 0
-613 611 0
614 612 613 0
-614 -612 0
-614 -613 0
615 610 -614 0
-615 -610 0
-615 614 0
616 -509 -597 0
-616 509 0
-616 597 0
617 403 -616 0
-617 -403 0
-617 616 0
618 -11 617 0
-618 11 0
-618 -617 0
619 11 -617 0
-619 -11 0
-619 617 0
620 618 619 0
-620 -618 0
-620 -619 0
621 -326 -564 0
-621 326 0
-621 564 0
622 -244 -621 0
-622 244 0
-622 621 0
623 -11 622 0
-623 11 0
-623 -622 0
624 11 -622 0
-624 -11 0
-624 622 0
625 623 624 0
-625 -623 0
-625 -624 0
626 620 -625 0
-626 -620 0
-626 625 0
627 331 -559 0
-627 -331 0
-627 559 0
628 -555 -627 0
-628 555 0
-628 627 0
629 -301 -628 0
-629 301 0
-629 628 0
630 -539 -571 0
-630 539 0
-630 571 0
631 -503 -630 0
-631 503 0
-631 630 0
632 -31 -631 0
-632 31 0
-632 631 0
633 -93 632 0
-633 93 0
-633 -632 0
634 93 -631 0
-634 -93 0
-634 631 0
635 633 634 0
-635 -633 0
-635 -634 0
636 -629 -635 0
-636 629 0
-636 635 0
637 -323 -333 0
-637 323 0
-637 333 0
638 477 -526 0
-638 -477 0
-638 526 0
639 -18 -83 0
-639 18 0
-639 83 0
640 638 639 0
-640 -638 0
-640 -639 0
641 -83 -638 0
-641 83 0
-641 638 0
642 640 641 0
-642 -640 0
-642 -641 0
643 637 -642 0
-643 -637 0
-643 642 0
644 -637 642 0
-644 637 0
-644 -642 0
645 -334 531 0
-645 334 0
-645 -531 0
646 -503 575 0
-646 503 0
-646 -575 0
647 -301 -577 0
-647 301 0
-647 577 0
648 -92 647 0
-648 92 0
-648 -647 0
649 92 -647 0
-649 -92 0
-649 647 0
650 648 649 0
-650 -648 0
-650 -649 0
651 -646 650 0
-651 646 0
-651 -650 0
652 646 -650 0
-652 -646 0
-652 650 0
653 651 652 0
-653 -651 0
-653 -652 0
654 -225 -586 0
-654 225 0
-654 586 0
655 -422 -580 0
-655 422 0
-655 580 0
656 -8 -73 0
-656 8 0
-656 73 0
657 655 656 0
-657 -655 0
-657 -656 0
658 -73 -655 0
-658 73 0
-658 655 0
659 657 658 0
-659 -657 0
-659 -658 0
660 -654 659 0
-660 654 0
-660 -659 0
661 -576 578 0
-661 576 0
-661 -578 0
662 584 -590 0
-662 -584 0
-662 590 0
663 596 -605 0
-663 -596 0
-663 605 0
664 -620 625 0
-664 620 0
-664 -625 0
665 -554 569 0
-665 554 0
-665 -569 0
666 629 635 0
-666 -629 0
-666 -635 0
667 -422 -598 0
-667 422 0
-667 598 0
668 -225 -592 0
-668 225 0
-668 592 0
669 667 668 0
-669 -667 0
-669 -668 0
670 -667 -668 0
-670 667 0
-670 668 0
671 669 670 0
-671 -669 0
-671 -670 0
672 -244 -592 0
-672 244 0
-672 592 0
673 403 -598 0
-673 -403 0
-673 598 0
674 78 -673 0
-674 -78 0
-674 673 0
675 15 -78 0
-675 -15 0
-675 78 0
676 673 -675 0
-676 -673 0
-676 675 0
677 674 676 0
-677 -674 0
-677 -676 0
678 -672 677 0
-678 672 0
-678 -677 0
679 672 -677 0
-679 -672 0
-679 677 0
680 678 679 0
-680 -678 0
-680 -679 0
681 477 575 0
-681 -477 0
-681 -575 0
682 -323 -577 0
-682 323 0
-682 577 0
683 91 -682 0
-683 -91 0
-683 682 0
684 -91 682 0
-684 91 0
-684 -682 0
685 683 684 0
-685 -683 0
-685 -684 0
686 -681 -685 0
-686 681 0
-686 685 0
687 681 685 0
-687 -681 0
-687 -685 0
688 -225 -621 0
-688 225 0
-688 621 0
689 -422 -616 0
-689 422 0
-689 616 0
690 -12 -74 0
-690 12 0
-690 74 0
691 -689 -690 0
-691 689 0
-691 690 0
692 74 689 0
-692 -74 0
-692 -689 0
693 691 692 0
-693 -691 0
-693 -692 0
694 -688 693 0
-694 688 0
-694 -693 0
695 688 -693 0
-695 -688 0
-695 693 0
696 -366 -630 0
-696 366 0
-696 630 0
697 -131 -628 0
-697 131 0
-697 628 0
698 696 -697 0
-698 -696 0
-698 697 0
699 -696 697 0
-699 696 0
-699 -697 0
700 -525 -539 0
-700 525 0
-700 539 0
701 -366 -700 0
-701 366 0
-701 700 0
702 -206 -627 0
-702 206 0
-702 627 0
703 -131 -702 0
-703 131 0
-703 702 0
704 701 -703 0
-704 -701 0
-704 703 0
705 462 -526 0
-705 -462 0
-705 526 0
706 -273 -333 0
-706 273 0
-706 333 0
707 -705 706 0
-707 705 0
-707 -706 0
708 -701 703 0
-708 701 0
-708 -703 0
709 705 -706 0
-709 -705 0
-709 706 0
710 -503 -700 0
-710 503 0
-710 700 0
711 -301 -702 0
-711 301 0
-711 702 0
712 -88 711 0
-712 88 0
-712 -711 0
713 88 -711 0
-713 -88 0
-713 711 0
714 712 713 0
-714 -712 0
-714 -713 0
715 -710 714 0
-715 710 0
-715 -714 0
716 710 -714 0
-716 -710 0
-716 714 0
717 715 716 0
-717 -715 0
-717 -716 0
718 445 -616 0
-718 -445 0
-718 616 0
719 205 -621 0
-719 -205 0
-719 621 0
720 718 719 0
-720 -718 0
-720 -719 0
721 -718 -719 0
-721 718 0
-721 719 0
722 720 721 0
-722 -720 0
-722 -721 0
723 654 -659 0
-723 -654 0
-723 659 0
724 -610 614 0
-724 610 0
-724 -614 0
725 -366 575 0
-725 366 0
-725 -575 0
726 -131 -577 0
-726 131 0
-726 577 0
727 -725 726 0
-727 725 0
-727 -726 0
728 -301 -333 0
-728 301 0
-728 333 0
729 -19 728 0
-729 19 0
-729 -728 0
730 19 -728 0
-730 -19 0
-730 728 0
731 729 730 0
-731 -729 0
-731 -730 0
732 -503 -526 0
-732 503 0
-732 526 0
733 -85 732 0
-733 85 0
-733 -732 0
734 85 -732 0
-734 -85 0
-734 732 0
735 733 734 0
-735 -733 0
-735 -734 0
736 -19 84 0
-736 19 0
-736 -84 0
737 19 -84 0
-737 -19 0
-737 84 0
738 736 737 0
-738 -736 0
-738 -737 0
739 -735 -738 0
-739 735 0
-739 738 0
740 735 738 0
-740 -735 0
-740 -738 0
741 739 740 0
-741 -739 0
-741 -740 0
742 731 741 0
-742 -731 0
-742 -741 0
743 -731 -741 0
-743 731 0
-743 741 0
744 725 -726 0
-744 -725 0
-744 726 0
745 -448 -550 0
-745 448 0
-745 550 0
746 -168 -565 0
-746 168 0
-746 565 0
747 745 746 0
-747 -745 0
-747 -746 0
748 -745 -746 0
-748 745 0
-748 746 0
749 747 748 0
-749 -747 0
-749 -748 0
750 462 -630 0
-750 -462 0
-750 630 0
751 -273 -628 0
-751 273 0
-751 628 0
752 750 -751 0
-752 -750 0
-752 751 0
753 -750 751 0
-753 750 0
-753 -751 0
754 477 -630 0
-754 -477 0
-754 630 0
755 -323 -628 0
-755 323 0
-755 628 0
756 754 755 0
-756 -754 0
-756 -755 0
757 -754 -755 0
-757 754 0
-757 755 0
758 756 757 0
-758 -756 0
-758 -757 0
759 -422 -550 0
-759 422 0
-759 550 0
760 -225 -565 0
-760 225 0
-760 565 0
761 -759 760 0
-761 759 0
-761 -760 0
762 759 -760 0
-762 -759 0
-762 760 0
763 -448 -616 0
-763 448 0
-763 616 0
764 -168 -621 0
-764 168 0
-764 621 0
765 763 -764 0
-765 -763 0
-765 764 0
766 -763 764 0
-766 763 0
-766 -764 0
767 403 -580 0
-767 -403 0
-767 580 0
768 -244 -586 0
-768 244 0
-768 586 0
769 767 768 0
-769 -767 0
-769 -768 0
770 -767 -768 0
-770 767 0
-770 768 0
771 769 770 0
-771 -769 0
-771 -770 0
772 462 -700 0
-772 -462 0
-772 700 0
773 -273 -702 0
-773 273 0
-773 702 0
774 89 -773 0
-774 -89 0
-774 773 0
775 -89 773 0
-775 89 0
-775 -773 0
776 774 775 0
-776 -774 0
-776 -775 0
777 -772 776 0
-777 772 0
-777 -776 0
778 772 -776 0
-778 -772 0
-778 776 0
779 777 778 0
-779 -777 0
-779 -778 0
780 -323 -702 0
-780 323 0
-780 702 0
781 -22 780 0
-781 22 0
-781 -780 0
782 22 -780 0
-782 -22 0
-782 780 0
783 781 782 0
-783 -781 0
-783 -782 0
784 477 -700 0
-784 -477 0
-784 700 0
785 -22 86 0
-785 22 0
-785 -86 0
786 22 -86 0
-786 -22 0
-786 86 0
787 785 786 0
-787 -785 0
-787 -786 0
788 784 787 0
-788 -784 0
-788 -787 0
789 -784 785 0
-789 784 0
-789 -785 0
790 788 789 0
-790 -788 0
-790 -789 0
791 -87 790 0
-791 87 0
-791 -790 0
792 87 -790 0
-792 -87 0
-792 790 0
793 791 792 0
-793 -791 0
-793 -792 0
794 -783 793 0
-794 783 0
-794 -793 0
795 783 -793 0
-795 -783 0
-795 793 0
796 794 795 0
-796 -794 0
-796 -795 0
797 205 -586 0
-797 -205 0
-797 586 0
798 445 -580 0
-798 -445 0
-798 580 0
799 -71 798 0
-799 71 0
-799 -798 0
800 71 -798 0
-800 -71 0
-800 798 0
801 799 800 0
-801 -799 0
-801 -800 0
802 -5 -72 0
-802 5 0
-802 72 0
803 -801 802 0
-803 801 0
-803 -802 0
804 -72 801 0
-804 72 0
-804 -801 0
805 803 804 0
-805 -803 0
-805 -804 0
806 797 805 0
-806 -797 0
-806 -805 0
807 -797 -805 0
-807 797 0
-807 805 0
808 806 807 0
-808 -806 0
-808 -807 0
809 205 -592 0
-809 -205 0
-809 592 0
810 13 809 0
-810 -13 0
-810 -809 0
811 -13 -809 0
-811 13 0
-811 809 0
812 810 811 0
-812 -810 0
-812 -811 0
813 445 -598 0
-813 -445 0
-813 598 0
814 -13 -813 0
-814 13 0
-814 813 0
815 -75 814 0
-815 75 0
-815 -814 0
816 75 -814 0
-816 -75 0
-816 814 0
817 815 816 0
-817 -815 0
-817 -816 0
818 -813 -817 0
-818 813 0
-818 817 0
819 -13 -817 0
-819 13 0
-819 817 0
820 76 -819 0
-820 -76 0
-820 819 0
821 -76 819 0
-821 76 0
-821 -819 0
822 818 820 0
-822 -818 0
-822 -820 0
823 821 -822 0
-823 -821 0
-823 822 0
824 -812 823 0
-824 812 0
-824 -823 0
825 812 -823 0
-825 -812 0
-825 823 0
826 824 825 0
-826 -824 0
-826 -825 0
827 698 699 0
-827 -698 0
-827 -699 0
828 704 707 0
-828 -704 0
-828 -707 0
829 708 709 0
-829 -708 0
-829 -709 0
830 752 753 0
-830 -752 0
-830 -753 0
831 -829 -830 0
-831 829 0
-831 830 0
832 -827 -828 0
-832 827 0
-832 828 0
833 717 758 0
-833 -717 0
-833 -758 0
834 761 762 0
-834 -761 0
-834 -762 0
835 765 766 0
-835 -765 0
-835 -766 0
836 779 -835 0
-836 -779 0
-836 835 0
837 -833 -834 0
-837 833 0
-837 834 0
838 -831 -832 0
-838 831 0
-838 832 0
839 532 579 0
-839 -532 0
-839 -579 0
840 643 644 0
-840 -643 0
-840 -644 0
841 645 661 0
-841 -645 0
-841 -661 0
842 671 686 0
-842 -671 0
-842 -686 0
843 687 722 0
-843 -687 0
-843 -722 0
844 727 744 0
-844 -727 0
-844 -744 0
845 749 771 0
-845 -749 0
-845 -771 0
846 -844 -845 0
-846 844 0
-846 845 0
847 -842 -843 0
-847 842 0
-847 843 0
848 -840 -841 0
-848 840 0
-848 841 0
849 -838 -839 0
-849 838 0
-849 839 0
850 -836 -837 0
-850 836 0
-850 837 0
851 570 591 0
-851 -570 0
-851 -591 0
852 606 615 0
-852 -606 0
-852 -615 0
853 626 636 0
-853 -626 0
-853 -636 0
854 653 660 0
-854 -653 0
-854 -660 0
855 662 663 0
-855 -662 0
-855 -663 0
856 664 665 0
-856 -664 0
-856 -665 0
857 666 694 0
-857 -666 0
-857 -694 0
858 695 723 0
-858 -695 0
-858 -723 0
859 724 -858 0
-859 -724 0
-859 858 0
860 -856 -857 0
-860 856 0
-860 857 0
861 -854 -855 0
-861 854 0
-861 855 0
862 -852 -853 0
-862 852 0
-862 853 0
863 -850 -851 0
-863 850 0
-863 851 0
864 -848 -849 0
-864 848 0
-864 849 0
865 -846 -847 0
-865 846 0
-865 847 0
866 680 742 0
-866 -680 0
-866 -742 0
867 743 -866 0
-867 -743 0
-867 866 0
868 -864 -865 0
-868 864 0
-868 865 0
869 -862 -863 0
-869 862 0
-869 863 0
870 -860 -861 0
-870 860 0
-870 861 0
871 796 -859 0
-871 -796 0
-871 859 0
872 -870 -871 0
-872 870 0
-872 871 0
873 -868 -869 0
-873 868 0
-873 869 0
874 808 -867 0
-874 -808 0
-874 867 0
875 -873 -874 0
-875 873 0
-875 874 0
876 -872 -875 0
-876 872 0
-876 875 0
877 826 -876 0
-877 -826 0
-877 876 0
94 877 0
-94 -877 0
94 0
w 1 0.500000
w 2 0.500000
w 3 0.500000
w 4 0.500000
w 5 0.500000
w 6 0.500000
w 7 0.500000
w 8 0.500000
w 9 0.500000
w 10 0.500000
w 11 0.500000
w 12 0.500000
w 13 0.500000
w 14 0.500000
w 15 0.500000
w 16 0.500000
w 17 0.500000
w 18 0.500000
w 19 0.500000
w 20 0.500000
w 21 0.500000
w 22 0.500000
w 23 0.500000
w 24 0.500000
w 25 0.500000
w 26 0.500000
w 27 0.500000
w 28 0.500000
w 29 0.500000
w 30 0.500000
w 31 0.500000
w 32 0.500000
w 33 0.500000
w 34 0.500000
w 35 0.500000
w 36 0.500000
w 37 0.500000
w 38 0.500000
w 39 0.500000
w 40 0.500000
w 41 0.500000
w 42 0.125000
w 43 0.125000
w 44 0.125000
w 45 0.125000
w 46 0.125000
w 47 0.125000
w 48 0.125000
w 49 0.125000
w 50 0.125000
w 51 0.125000
w 52 0.125000
w 53 0.125000
w 54 0.125000
w 55 0.125000
w 56 0.125000
w 57 0.125000
w 58 0.125000
w 59 0.125000
w 60 0.125000
w 61 0.125000
w 62 0.125000
w 63 0.125000
w 64 0.125000
w 65 0.125000
w 66 0.125000
w 67 0.125000
w 68 0.125000
w 69 0.125000
w 70 0.125000
w 71 0.125000
w 72 0.125000
w 73 0.125000
w 74 0.125000
w 75 0.125000
w 76 0.125000
w 77 0.125000
w 78 0.125000
w 79 0.125000
w 80 0.125000
w 81 0.125000
w 82 0.125000
w 83 0.125000
w 84 0.125000
w 85 0.125000
w 86 0.125000
w 87 0.125000
w 88 0.125000
w 89 0.125000
w 90 0.125000
w 91 0.125000
w 92 0.125000
w 93 0.125000
w 95 -1
w 96 -1
w 97 -1
w 98 -1
w 99 -1
w 100 -1
w 101 -1
w 102 -1
w 103 -1
w 104 -1
w 105 -1
w 106 -1
w 107 -1
w 108 -1
w 109 -1
w 110 -1
w 111 -1
w 112 -1
w 113 -1
w 114 -1
w 115 -1
w 116 -1
w 117 -1
w 118 -1
w 119 -1
w 120 -1
w 121 -1
w 122 -1
w 123 -1
w 124 -1
w 125 -1
w 126 -1
w 127 -1
w 128 -1
w 129 -1
w 130 -1
w 131 -1
w 132 -1
w 133 -1
w 134 -1
w 135 -1
w 136 -1
w 137 -1
w 138 -1
w 139 -1
w 140 -1
w 141 -1
w 142 -1
w 143 -1
w 144 -1
w 145 -1
w 146 -1
w 147 -1
w 148 -1
w 149 -1
w 150 -1
w 151 -1
w 152 -1
w 153 -1
w 154 -1
w 155 -1
w 156 -1
w 157 -1
w 158 -1
w 159 -1
w 160 -1
w 161 -1
w 162 -1
w 163 -1
w 164 -1
w 165 -1
w 166 -1
w 167 -1
w 168 -1
w 169 -1
w 170 -1
w 171 -1
w 172 -1
w 173 -1
w 174 -1
w 175 -1
w 176 -1
w 177 -1
w 178 -1
w 179 -1
w 180 -1
w 181 -1
w 182 -1
w 183 -1
w 184 -1
w 185 -1
w 186 -1
w 187 -1
w 188 -1
w 189 -1
w 190 -1
w 191 -1
w 192 -1
w 193 -1
w 194 -1
w 195 -1
w 196 -1
w 197 -1
w 198 -1
w 199 -1
w 200 -1
w 201 -1
w 202 -1
w 203 -1
w 204 -1
w 205 -1
w 206 -1
w 207 -1
w 208 -1
w 209 -1
w 210 -1
w 211 -1
w 212 -1
w 213 -1
w 214 -1
w 215 -1
w 216 -1
w 217 -1
w 218 -1
w 219 -1
w 220 -1
w 221 -1
w 222 -1
w 223 -1
w 224 -1
w 225 -1
w 226 -1
w 227 -1
w 228 -1
w 229 -1
w 230 -1
w 231 -1
w 232 -1
w 233 -1
w 234 -1
w 235 -1
w 236 -1
w 237 -1
w 238 -1
w 239 -1
w 240 -1
w 241 -1
w 242 -1
w 243 -1
w 244 -1
w 245 -1
w 246 -1
w 247 -1
w 248 -1
w 249 -1
w 250 -1
w 251 -1
w 252 -1
w 253 -1
w 254 -1
w 255 -1
w 256 -1
w 257 -1
w 258 -1
w 259 -1
w 260 -1
w 261 -1
w 262 -1
w 263 -1
w 264 -1
w 265 -1
w 266 -1
w 267 -1
w 268 -1
w 269 -1
w 270 -1
w 271 -1
w 272 -1
w 273 -1
w 274 -1
w 275 -1
w 276 -1
w 277 -1
w 278 -1
w 279 -1
w 280 -1
w 281 -1
w 282 -1
w 283 -1
w 284 -1
w 285 -1
w 286 -1
w 287 -1
w 288 -1
w 289 -1
w 290 -1
w 291 -1
w 292 -1
w 293 -1
w 294 -1
w 295 -1
w 296 -1
w 297 -1
w 298 -1
w 299 -1
w 300 -1
w 301 -1
w 302 -1
w 303 -1
w 304 -1
w 305 -1
w 306 -1
w 307 -1
w 308 -1
w 309 -1
w 310 -1
w 311 -1
w 312 -1
w 313 -1
w 314 -1
w 315 -1
w 316 -1
w 317 -1
w 318 -1
w 319 -1
w 320 -1
w 321 -1
w 322 -1
w 323 -1
w 324 -1
w 325 -1
w 326 -1
w 327 -1
w 328 -1
w 329 -1
w 330 -1
w 331 -1
w 332 -1
w 333 -1
w 334 -1
w 335 -1
w 336 -1
w 337 -1
w 338 -1
w 339 -1
w 340 -1
w 341 -1
w 342 -1
w 343 -1
w 344 -1
w 345 -1
w 346 -1
w 347 -1
w 348 -1
w 349 -1
w 350 -1
w 351 -1
w 352 -1
w 353 -1
w 354 -1
w 355 -1
w 356 -1
w 357 -1
w 358 -1
w 359 -1
w 360 -1
w 361 -1
w 362 -1
w 363 -1
w 364 -1
w 365 -1
w 366 -1
w 367 -1
w 368 -1
w 369 -1
w 370 -1
w 371 -1
w 372 -1
w 373 -1
w 374 -1
w 375 -1
w 376 -1
w 377 -1
w 378 -1
w 379 -1
w 380 -1
w 381 -1
w 382 -1
w 383 -1
w 384 -1
w 385 -1
w 386 -1
w 387 -1
w 388 -1
w 389 -1
w 390 -1
w 391 -1
w 392 -1
w 393 -1
w 394 -1
w 395 -1
w 396 -1
w 397 -1
w 398 -1
w 399 -1
w 400 -1
w 401 -1
w 402 -1
w 403 -1
w 404 -1
w 405 -1
w 406 -1
w 407 -1
w 408 -1
w 409 -1
w 410 -1
w 411 -1
w 412 -1
w 413 -1
w 414 -1
w 415 -1
w 416 -1
w 417 -1
w 418 -1
w 419 -1
w 420 -1
w 421 -1
w 422 -1
w 423 -1
w 424 -1
w 425 -1
w 426 -1
w 427 -1
w 428 -1
w 429 -1
w 430 -1
w 431 -1
w 432 -1
w 433 -1
w 434 -1
w 435 -1
w 436 -1
w 437 -1
w 438 -1
w 439 -1
w 440 -1
w 441 -1
w 442 -1
w 443 -1
w 444 -1
w 445 -1
w 446 -1
w 447 -1
w 448 -1
w 449 -1
w 450 -1
w 451 -1
w 452 -1
w 453 -1
w 454 -1
w 455 -1
w 456 -1
w 457 -1
w 458 -1
w 459 -1
w 460 -1
w 461 -1
w 462 -1
w 463 -1
w 464 -1
w 465 -1
w 466 -1
w 467 -1
w 468 -1
w 469 -1
w 470 -1
w 471 -1
w 472 -1
w 473 -1
w 474 -1
w 475 -1
w 476 -1
w 477 -1
w 478 -1
w 479 -1
w 480 -1
w 481 -1
w 482 -1
w 483 -1
w 484 -1
w 485 -1
w 486 -1
w 487 -1
w 488 -1
w 489 -1
w 490 -1
w 491 -1
w 492 -1
w 493 -1
w 494 -1
w 495 -1
w 496 -1
w 497 -1
w 498 -1
w 499 -1
w 500 -1
w 501 -1
w 502 -1
w 503 -1
w 504 -1
w 505 -1
w 506 -1
w 507 -1
w 508 -1
w 509 -1
w 510 -1
w 511 -1
w 512 -1
w 513 -1
w 514 -1
w 515 -1
w 516 -1
w 517 -1
w 518 -1
w 519 -1
w 520 -1
w 521 -1
w 522 -1
w 523 -1
w 524 -1
w 525 -1
w 526 -1
w 527 -1
w 528 -1
w 529 -1
w 530 -1
w 531 -1
w 532 -1
w 533 -1
w 534 -1
w 535 -1
w 536 -1
w 537 -1
w 538 -1
w 539 -1
w 540 -1
w 541 -1
w 542 -1
w 543 -1
w 544 -1
w 545 -1
w 546 -1
w 547 -1
w 548 -1
w 549 -1
w 550 -1
w 551 -1
w 552 -1
w 553 -1
w 554 -1
w 555 -1
w 556 -1
w 557 -1
w 558 -1
w 559 -1
w 560 -1
w 561 -1
w 562 -1
w 563 -1
w 564 -1
w 565 -1
w 566 -1
w 567 -1
w 568 -1
w 569 -1
w 570 -1
w 571 -1
w 572 -1
w 573 -1
w 574 -1
w 575 -1
w 576 -1
w 577 -1
w 578 -1
w 579 -1
w 580 -1
w 581 -1
w 582 -1
w 583 -1
w 584 -1
w 585 -1
w 586 -1
w 587 -1
w 588 -1
w 589 -1
w 590 -1
w 591 -1
w 592 -1
w 593 -1
w 594 -1
w 595 -1
w 596 -1
w 597 -1
w 598 -1
w 599 -1
w 600 -1
w 601 -1
w 602 -1
w 603 -1
w 604 -1
w 605 -1
w 606 -1
w 607 -1
w 608 -1
w 609 -1
w 610 -1
w 611 -1
w 612 -1
w 613 -1
w 614 -1
w 615 -1
w 616 -1
w 617 -1
w 618 -1
w 619 -1
w 620 -1
w 621 -1
w 622 -1
w 623 -1
w 624 -1
w 625 -1
w 626 -1
w 627 -1
w 628 -1
w 629 -1
w 630 -1
w 631 -1
w 632 -1
w 633 -1
w 634 -1
w 635 -1
w 636 -1
w 637 -1
w 638 -1
w 639 -1
w 640 -1
w 641 -1
w 642 -1
w 643 -1
w 644 -1
w 645 -1
w 646 -1
w 647 -1
w 648 -1
w 649 -1
w 650 -1
w 651 -1
w 652 -1
w 653 -1
w 654 -1
w 655 -1
w 656 -1
w 657 -1
w 658 -1
w 659 -1
w 660 -1
w 661 -1
w 662 -1
w 663 -1
w 664 -1
w 665 -1
w 666 -1
w 667 -1
w 668 -1
w 669 -1
w 670 -1
w 671 -1
w 672 -1
w 673 -1
w 674 -1
w 675 -1
w 676 -1
w 677 -1
w 678 -1
w 679 -1
w 680 -1
w 681 -1
w 682 -1
w 683 -1
w 684 -1
w 685 -1
w 686 -1
w 687 -1
w 688 -1
w 689 -1
w 690 -1
w 691 -1
w 692 -1
w 693 -1
w 694 -1
w 695 -1
w 696 -1
w 697 -1
w 698 -1
w 699 -1
w 700 -1
w 701 -1
w 702 -1
w 703 -1
w 704 -1
w 705 -1
w 706 -1
w 707 -1
w 708 -1
w 709 -1
w 710 -1
w 711 -1
w 712 -1
w 713 -1
w 714 -1
w 715 -1
w 716 -1
w 717 -1
w 718 -1
w 719 -1
w 720 -1
w 721 -1
w 722 -1
w 723 -1
w 724 -1
w 725 -1
w 726 -1
w 727 -1
w 728 -1
w 729 -1
w 730 -1
w 731 -1
w 732 -1
w 733 -1
w 734 -1
w 735 -1
w 736 -1
w 737 -1
w 738 -1
w 739 -1
w 740 -1
w 741 -1
w 742 -1
w 743 -1
w 744 -1
w 745 -1
w 746 -1
w 747 -1
w 748 -1
w 749 -1
w 750 -1
w 751 -1
w 752 -1
w 753 -1
w 754 -1
w 755 -1
w 756 -1
w 757 -1
w 758 -1
w 759 -1
w 760 -1
w 761 -1
w 762 -1
w 763 -1
w 764 -1
w 765 -1
w 766 -1
w 767 -1
w 768 -1
w 769 -1
w 770 -1
w 771 -1
w 772 -1
w 773 -1
w 774 -1
w 775 -1
w 776 -1
w 777 -1
w 778 -1
w 779 -1
w 780 -1
w 781 -1
w 782 -1
w 783 -1
w 784 -1
w 785 -1
w 786 -1
w 787 -1
w 788 -1
w 789 -1
w 790 -1
w 791 -1
w 792 -1
w 793 -1
w 794 -1
w 795 -1
w 796 -1
w 797 -1
w 798 -1
w 799 -1
w 800 -1
w 801 -1
w 802 -1
w 803 -1
w 804 -1
w 805 -1
w 806 -1
w 807 -1
w 808 -1
w 809 -1
w 810 -1
w 811 -1
w 812 -1
w 813 -1
w 814 -1
w 815 -1
w 816 -1
w 817 -1
w 818 -1
w 819 -1
w 820 -1
w 821 -1
w 822 -1
w 823 -1
w 824 -1
w 825 -1
w 826 -1
w 827 -1
w 828 -1
w 829 -1
w 830 -1
w 831 -1
w 832 -1
w 833 -1
w 834 -1
w 835 -1
w 836 -1
w 837 -1
w 838 -1
w 839 -1
w 840 -1
w 841 -1
w 842 -1
w 843 -1
w 844 -1
w 845 -1
w 846 -1
w 847 -1
w 848 -1
w 849 -1
w 850 -1
w 851 -1
w 852 -1
w 853 -1
w 854 -1
w 855 -1
w 856 -1
w 857 -1
w 858 -1
w 859 -1
w 860 -1
w 861 -1
w 862 -1
w 863 -1
w 864 -1
w 865 -1
w 866 -1
w 867 -1
w 868 -1
w 869 -1
w 870 -1
w 871 -1
w 872 -1
w 873 -1
w 874 -1
w 875 -1
w 876 -1
w 877 -1
w 94 -1
